param set_len = 16;
param target := 470732149;
param values := [1] 49363616 [2] 77261450 [3] 93134853 [4] 35383435 [5] 87438309 [6] 18775208 [7] 100844661 [8] 48489026 [9] 114029480 [10] 3341132 [11] 45323433 [12] 49712871 [13] 62667759 [14] 5399889 [15] 47425774 [16] 66239783 ;
